c Generated with `cnfgen`
c (C) 2012-2019 Massimo Lauria <massimo.lauria@uniroma1.it>
c https://massimolauria.net/cnfgen
c
c COMMAND LINE: cnfgen --seed 1 -o ./tseitin/tseitin.grid6.s1.cnf tseitin --grid 6 6 --savegraph ./tseitin/tseitin.grid6.s1.graph --graphformat dot --charge randomeven
c
p cnf 60 200
1 2 0
-1 -2 0
1 3 4 0
1 -3 -4 0
-1 3 -4 0
-1 -3 4 0
3 5 -6 0
3 -5 6 0
-3 5 6 0
-3 -5 -6 0
5 7 -8 0
5 -7 8 0
-5 7 8 0
-5 -7 -8 0
7 9 10 0
7 -9 -10 0
-7 9 -10 0
-7 -9 10 0
9 11 0
-9 -11 0
2 12 13 0
2 -12 -13 0
-2 12 -13 0
-2 -12 13 0
4 12 14 -15 0
4 12 -14 15 0
4 -12 14 15 0
4 -12 -14 -15 0
-4 12 14 15 0
-4 12 -14 -15 0
-4 -12 14 -15 0
-4 -12 -14 15 0
6 14 16 -17 0
6 14 -16 17 0
6 -14 16 17 0
6 -14 -16 -17 0
-6 14 16 17 0
-6 14 -16 -17 0
-6 -14 16 -17 0
-6 -14 -16 17 0
8 16 18 -19 0
8 16 -18 19 0
8 -16 18 19 0
8 -16 -18 -19 0
-8 16 18 19 0
-8 16 -18 -19 0
-8 -16 18 -19 0
-8 -16 -18 19 0
10 18 20 -21 0
10 18 -20 21 0
10 -18 20 21 0
10 -18 -20 -21 0
-10 18 20 21 0
-10 18 -20 -21 0
-10 -18 20 -21 0
-10 -18 -20 21 0
11 20 -22 0
11 -20 22 0
-11 20 22 0
-11 -20 -22 0
13 23 -24 0
13 -23 24 0
-13 23 24 0
-13 -23 -24 0
15 23 25 -26 0
15 23 -25 26 0
15 -23 25 26 0
15 -23 -25 -26 0
-15 23 25 26 0
-15 23 -25 -26 0
-15 -23 25 -26 0
-15 -23 -25 26 0
17 25 27 -28 0
17 25 -27 28 0
17 -25 27 28 0
17 -25 -27 -28 0
-17 25 27 28 0
-17 25 -27 -28 0
-17 -25 27 -28 0
-17 -25 -27 28 0
19 27 29 -30 0
19 27 -29 30 0
19 -27 29 30 0
19 -27 -29 -30 0
-19 27 29 30 0
-19 27 -29 -30 0
-19 -27 29 -30 0
-19 -27 -29 30 0
21 29 31 32 0
21 29 -31 -32 0
21 -29 31 -32 0
21 -29 -31 32 0
-21 29 31 -32 0
-21 29 -31 32 0
-21 -29 31 32 0
-21 -29 -31 -32 0
22 31 33 0
22 -31 -33 0
-22 31 -33 0
-22 -31 33 0
24 34 -35 0
24 -34 35 0
-24 34 35 0
-24 -34 -35 0
26 34 36 37 0
26 34 -36 -37 0
26 -34 36 -37 0
26 -34 -36 37 0
-26 34 36 -37 0
-26 34 -36 37 0
-26 -34 36 37 0
-26 -34 -36 -37 0
28 36 38 39 0
28 36 -38 -39 0
28 -36 38 -39 0
28 -36 -38 39 0
-28 36 38 -39 0
-28 36 -38 39 0
-28 -36 38 39 0
-28 -36 -38 -39 0
30 38 40 41 0
30 38 -40 -41 0
30 -38 40 -41 0
30 -38 -40 41 0
-30 38 40 -41 0
-30 38 -40 41 0
-30 -38 40 41 0
-30 -38 -40 -41 0
32 40 42 43 0
32 40 -42 -43 0
32 -40 42 -43 0
32 -40 -42 43 0
-32 40 42 -43 0
-32 40 -42 43 0
-32 -40 42 43 0
-32 -40 -42 -43 0
33 42 44 0
33 -42 -44 0
-33 42 -44 0
-33 -42 44 0
35 45 -46 0
35 -45 46 0
-35 45 46 0
-35 -45 -46 0
37 45 47 -48 0
37 45 -47 48 0
37 -45 47 48 0
37 -45 -47 -48 0
-37 45 47 48 0
-37 45 -47 -48 0
-37 -45 47 -48 0
-37 -45 -47 48 0
39 47 49 -50 0
39 47 -49 50 0
39 -47 49 50 0
39 -47 -49 -50 0
-39 47 49 50 0
-39 47 -49 -50 0
-39 -47 49 -50 0
-39 -47 -49 50 0
41 49 51 -52 0
41 49 -51 52 0
41 -49 51 52 0
41 -49 -51 -52 0
-41 49 51 52 0
-41 49 -51 -52 0
-41 -49 51 -52 0
-41 -49 -51 52 0
43 51 53 -54 0
43 51 -53 54 0
43 -51 53 54 0
43 -51 -53 -54 0
-43 51 53 54 0
-43 51 -53 -54 0
-43 -51 53 -54 0
-43 -51 -53 54 0
44 53 55 0
44 -53 -55 0
-44 53 -55 0
-44 -53 55 0
46 -56 0
-46 56 0
48 56 57 0
48 -56 -57 0
-48 56 -57 0
-48 -56 57 0
50 57 -58 0
50 -57 58 0
-50 57 58 0
-50 -57 -58 0
52 58 -59 0
52 -58 59 0
-52 58 59 0
-52 -58 -59 0
54 59 60 0
54 -59 -60 0
-54 59 -60 0
-54 -59 60 0
55 60 0
-55 -60 0
